c Random generated cnf formula, satisfiable: true
p cnf 10 50
1 2 -3 0
-10 -4 -5 0
3 -7 2 0
-10 -3 5 0
4 -8 -9 0
-6 -3 -10 0
-7 9 -8 0
-9 -4 8 0
4 -7 -10 0
8 2 7 0
-1 -3 -8 0
-10 -8 -5 0
1 -9 -2 0
-9 7 -6 0
4 1 -6 0
3 8 -1 0
7 8 3 0
1 9 -3 0
-6 9 8 0
10 6 1 0
8 4 -9 0
7 2 -3 0
-4 -3 -7 0
-3 -10 6 0
-9 -8 5 0
-8 -7 1 0
5 -2 8 0
3 9 10 0
7 10 9 0
-1 8 10 0
10 3 2 0
6 3 1 0
-7 3 8 0
-8 -1 -6 0
-10 5 2 0
-9 -5 1 0
3 -1 5 0
6 7 -1 0
1 -9 8 0
3 -9 -7 0
1 -3 5 0
8 -4 2 0
-6 -9 5 0
-1 -5 -6 0
-7 6 -1 0
4 -2 8 0
-3 -9 8 0
6 1 4 0
-4 8 3 0
8 10 -6 0
